NAME: n20q1000H.tsp, 20 nodes, semilla 777
COMMENT: Problema aleatorio de norma euclidea
DIMENSION: 20
CAPACITY: 1000
EDGE_WEIGHT_TYPE: EUC_2D
NODE_COORD_SECTION
1   0.0000   0.0000
2 -108.0000  76.0000
3 372.0000 -432.0000
4 -57.0000 388.0000
5 286.0000 409.0000
6 424.0000 169.0000
7  58.0000 -497.0000
8 221.0000 118.0000
9 470.0000 380.0000
10 -431.0000 -422.0000
11 305.0000 -58.0000
12 457.0000 196.0000
13 493.0000 269.0000
14 281.0000 -259.0000
15 -172.0000 -484.0000
16 263.0000 -258.0000
17 -427.0000 153.0000
18 351.0000 314.0000
19 478.0000 120.0000
20 -415.0000 -203.0000
DISPLAY_DATA_SECTION:
 1  250  250
 2  196  288
 3  436   34
 4  221  444
 5  393  454
 6  462  334
 7  279    1
 8  360  309
 9  485  440
10   34   39
11  402  221
12  478  348
13  496  384
14  390  120
15  164    8
16  381  121
17   36  326
18  425  407
19  489  310
20   42  148
DEMAND_SECTION
1 0
2 9
3 -2
4 -4
5 6
6 -8
7 3
8 8
9 -7
10 -10
11 -1
12 0
13 4
14 -2
15 8
16 -1
17 -7
18 4
19 8
20 -8
EOF